c
c /Users/conrad/Documents/EC/Course_deuxiemme_annee/Logique/projet_binero/output/mini.dimacs
c
p cnf 20 79
1 0 
-5 1 2 0 
-6 1 2 0 
5 -1 -2 0 
5 -1 -2 0 
-5 -1 2 0 
-5 1 -2 0 
6 -1 2 0 
6 1 -2 0 
-5 6 0 
7 -5 0 
-7 5 0 
8 -6 0 
-8 6 0 
-7 0 
8 0 
-9 3 4 0 
-10 3 4 0 
9 -3 -4 0 
9 -3 -4 0 
-9 -3 4 0 
-9 3 -4 0 
10 -3 4 0 
10 3 -4 0 
-9 10 0 
11 -9 0 
-11 9 0 
12 -10 0 
-12 10 0 
-11 0 
12 0 
-13 1 3 0 
-14 1 3 0 
13 -1 -3 0 
13 -1 -3 0 
-13 -1 3 0 
-13 1 -3 0 
14 -1 3 0 
14 1 -3 0 
-13 14 0 
15 -13 0 
-15 13 0 
16 -14 0 
-16 14 0 
-15 0 
16 0 
-17 2 4 0 
-18 2 4 0 
17 -2 -4 0 
17 -2 -4 0 
-17 -2 4 0 
-17 2 -4 0 
18 -2 4 0 
18 2 -4 0 
-17 18 0 
19 -17 0 
-19 17 0 
20 -18 0 
-20 18 0 
-19 0 
20 0 
19 20 0 
19 -1 3 0 
20 -2 4 0 
19 1 -3 0 
20 2 -4 0 
-19 1 3 0 
-19 -1 -3 0 
-20 2 4 0 
-20 -2 -4 0 
19 20 0 
19 -1 2 0 
20 -3 4 0 
19 1 -2 0 
20 3 -4 0 
-19 1 2 0 
-19 -1 -2 0 
-20 3 4 0 
-20 -3 -4 0 
